letting n =  10
letting blocks =  [[1, 2], [1, 3], [1, 4], [1, 5], [1, 6], [1, 8], [2, 1], [2, 2], [2, 3], [2, 8], [2, 10], [3, 2], [3, 5], [3, 6], [3, 7], [4, 3], [4, 4], [4, 6], [4, 8], [4, 9], [4, 10], [5, 1], [5, 2], [5, 5], [5, 6], [5, 7], [5, 9], [6, 1], [6, 4], [6, 5], [6, 7], [6, 9], [6, 10], [7, 5], [7, 6], [7, 7], [7, 8], [7, 9], [7, 10], [8, 4], [8, 5], [8, 7], [8, 8], [8, 9], [8, 10], [9, 2], [9, 4], [9, 7], [9, 10], [10, 1], [10, 4], [10, 6], [10, 8], [10, 9]]
